7 4 4 10 7 1 0 8 7 -1 
9 4 7 -1 0 6 5 5 10 -1 
4 4 1 1 2 10 6 -1 2 -1 
7 -1 3 10 7 -1 -1 -1 6 -1 
6 8 2 -1 0 -1 1 6 0 -1 
7 7 4 5 9 1 2 4 6 -1 
3 6 8 0 1 10 0 6 4 -1 
-1 9 6 9 9 7 4 7 5 -1 
9 0 9 9 1 -1 1 1 8 -1 
1 9 5 2 6 2 0 9 6 -1 
3 6 9 3 1 5 3 -1 9 -1 
1 7 -1 1 10 4 6 9 1 -1 
0 -1 0 3 7 4 2 10 2 -1 
-1 10 5 -1 6 10 -1 8 8 -1 
10 10 1 10 0 0 10 8 1 -1 
4 -1 2 10 0 9 0 7 5 -1 
1 6 2 8 10 1 0 5 8 -1 
5 3 4 7 -1 10 7 3 8 -1 
10 1 0 8 0 7 1 9 3 -1 
-1 5 6 4 2 -1 2 0 9 -1 
